N = 13;
H = 5;
T = 2;

avail = array3d(1..N, 1..H, 1..T, [3, 10, 4, 5, 3, 6, 6, 0, 6, 3, 9, 9, 9, 5, 3, 7, 4, 8, 2, 4, 4, 9, 7, 10, 4, 6, 2, 3, 3, 0, 1, 1, 9, 0, 8, 10, 8, 2, 8, 0, 7, 7, 9, 9, 4, 10, 7, 3, 1, 9, 4, 4, 8, 10, 3, 3, 9, 9, 9, 10, 0, 0, 0, 3, 0, 2, 0, 0, 1, 8, 2, 5, 0, 7, 4, 9, 2, 8, 7, 7, 0, 10, 8, 7, 8, 8, 6, 9, 8, 0, 4, 9, 1, 3, 1, 10, 6, 3, 2, 5, 8, 3, 0, 3, 3, 2, 6, 9, 9, 1, 9, 4, 6, 4, 4, 2, 7, 4, 0, 5, 8, 7, 7, 4, 4, 3, 3, 6, 9, 7]);

r = array2d(1..H, 1..T, [3, 5, 4, 5, 6, 2, 3, 5, 3, 2]);
